NAME : A-n32-k5
COMMENT : (Augerat et al, Min no of trucks: 2, Optimal value: 784)
TYPE : CVRP
DIMENSION : 3
EDGE_WEIGHT_TYPE : EUC_2D
CAPACITY : 100
NODE_COORD_SECTION
 1 1 1
 2 0 1
 3 1 0
DEMAND_SECTION
1 100
2 100
3 100
DEPOT_SECTION
 1
 -1
EOF
